22	3

10	10	10	

0	0	0	0	3	2	3	4	
5	3	5	2	2	5	6	
1	5	4	3	2	5	7	
1	5	2	2	2	6	8	
9	4	1	4	2	9	11	
5	5	5	4	2	10	12	
5	3	5	2	2	9	10	
2	2	4	4	2	10	11	
6	3	2	2	1	13	
4	3	2	4	2	14	15	
4	3	3	2	1	14	
1	4	1	4	2	13	16	
1	1	4	4	1	19	
6	2	2	2	2	17	18	
6	5	5	4	1	19	
6	1	5	4	1	18	
2	4	5	4	2	20	21	
3	3	2	3	1	20	
1	5	3	3	1	20	
3	2	4	6	1	22	
4	1	6	2	1	22	
0	0	0	0	0	
